10
0 3 4 6 5 7 8 9 4 3
1 0 1 1 5 7 5 2 4 7
3 3 0 6 5 7 8 9 4 5
7 3 8 0 5 7 2 4 4 7
3 5 4 1 0 7 2 9 4 2
7 3 2 6 5 0 8 8 4 7
9 5 4 3 5 7 0 1 4 4
1 3 4 6 5 7 8 0 4 3
2 9 2 9 5 7 6 9 0 7
7 2 4 6 5 7 8 1 4 0
